(set-info :status sat)
(declare-const symbol_10 (_ BitVec 32))
(declare-const symbol_0 (_ BitVec 32))
(declare-const symbol_3 (_ BitVec 32))
(declare-const symbol_6 (_ BitVec 32))
(declare-const symbol_1 (_ BitVec 32))
(declare-const symbol_8 (_ BitVec 32))
(assert (not (= symbol_10 (_ bv14 32))))
(assert (not (not (= symbol_10 (_ bv15 32)))))
(assert (not (not (= symbol_8 (_ bv15 32)))))
(assert (not (not (= symbol_6 (_ bv15 32)))))
(assert (not (not (= symbol_3 (_ bv15 32)))))
(assert (not (not (= symbol_1 (_ bv15 32)))))
(assert (not (not (= symbol_0 (_ bv15 32)))))
(check-sat)